p cnf 413 2401
-2 0
-3 0
-4 0
-5 0
-6 0
-7 0
1 0
50 8 0
-50 -8 0
344 345 0
-344 -345 0
-8 -9 0
-8 -10 0
-9 -10 0
-11 -12 0
-11 -13 0
-11 -14 0
-12 -13 0
-12 -14 0
-13 -14 0
-344 8 9 10 0
-345 10 11 12 13 14 0
344 -8 0
344 -9 0
344 -10 0
345 -11 0
345 -12 0
345 -13 0
345 -14 0
-8 1 15 0
-8 1 57 0
-8 15 57 0
-9 2 16 0
-9 2 58 0
-9 16 58 0
-10 3 17 0
-10 3 59 0
-10 17 59 0
-11 4 18 0
-11 4 60 0
-11 18 60 0
-12 5 19 0
-12 5 61 0
-12 19 61 0
-13 6 20 0
-13 6 62 0
-13 20 62 0
-14 7 21 0
-14 7 63 0
-14 21 63 0
-8 -1 -15 -57 0
-9 -2 -16 -58 0
-10 -3 -17 -59 0
-11 -4 -18 -60 0
-12 -5 -19 -61 0
-13 -6 -20 -62 0
-14 -7 -21 -63 0
-16 0
-17 0
-18 0
-19 0
-20 0
-21 0
15 0
8 22 64 0
-8 -22 0
-8 -64 0
-22 -64 0
-22 0
-24 0
-25 0
-26 0
-27 0
-28 0
23 0
16 30 72 0
-16 -30 0
-16 -72 0
-30 -72 0
-29 0
-30 0
-32 0
-33 0
-34 0
-35 0
31 0
24 38 80 0
-24 -38 0
-24 -80 0
-38 -80 0
-36 0
-37 0
-38 0
-40 0
-41 0
-42 0
39 0
32 46 88 0
-32 -46 0
-32 -88 0
-46 -88 0
-43 0
-44 0
-45 0
-46 0
-48 0
-49 0
47 0
96 40 0
-96 -40 0
-50 0
-51 0
-52 0
-53 0
-54 0
-56 0
55 0
104 62 6 0
-104 -62 0
-104 -6 0
-62 -6 0
346 347 0
-346 -347 0
-57 -58 0
-57 -59 0
-58 -59 0
-60 -61 0
-60 -62 0
-60 -63 0
-61 -62 0
-61 -63 0
-62 -63 0
-346 57 58 59 0
-347 59 60 61 62 63 0
346 -57 0
346 -58 0
346 -59 0
347 -60 0
347 -61 0
347 -62 0
347 -63 0
-57 106 64 8 0
-57 106 64 50 0
-57 106 8 50 0
-57 64 8 50 0
-58 107 65 9 0
-58 107 65 51 0
-58 107 9 51 0
-58 65 9 51 0
-59 108 66 10 0
-59 108 66 52 0
-59 108 10 52 0
-59 66 10 52 0
-60 109 67 11 0
-60 109 67 53 0
-60 109 11 53 0
-60 67 11 53 0
-61 110 68 12 0
-61 110 68 54 0
-61 110 12 54 0
-61 68 12 54 0
-62 111 69 13 0
-62 111 69 55 0
-62 111 13 55 0
-62 69 13 55 0
-63 112 70 14 0
-63 112 70 56 0
-63 112 14 56 0
-63 70 14 56 0
-57 -106 -64 -8 0
-57 -106 -64 -50 0
-57 -106 -8 -50 0
-57 -64 -8 -50 0
-58 -107 -65 -9 0
-58 -107 -65 -51 0
-58 -107 -9 -51 0
-58 -65 -9 -51 0
-59 -108 -66 -10 0
-59 -108 -66 -52 0
-59 -108 -10 -52 0
-59 -66 -10 -52 0
-60 -109 -67 -11 0
-60 -109 -67 -53 0
-60 -109 -11 -53 0
-60 -67 -11 -53 0
-61 -110 -68 -12 0
-61 -110 -68 -54 0
-61 -110 -12 -54 0
-61 -68 -12 -54 0
-62 -111 -69 -13 0
-62 -111 -69 -55 0
-62 -111 -13 -55 0
-62 -69 -13 -55 0
-63 -112 -70 -14 0
-63 -112 -70 -56 0
-63 -112 -14 -56 0
-63 -70 -14 -56 0
348 349 0
-348 -349 0
-64 -65 0
-64 -66 0
-65 -66 0
-67 -68 0
-67 -69 0
-67 -70 0
-68 -69 0
-68 -70 0
-69 -70 0
-348 64 65 66 0
-349 66 67 68 69 70 0
348 -64 0
348 -65 0
348 -66 0
349 -67 0
349 -68 0
349 -69 0
349 -70 0
-64 113 71 15 0
-64 113 71 57 0
-64 113 15 57 0
-64 71 15 57 0
-65 114 72 16 0
-65 114 72 58 0
-65 114 16 58 0
-65 72 16 58 0
-66 115 73 17 0
-66 115 73 59 0
-66 115 17 59 0
-66 73 17 59 0
-67 116 74 18 0
-67 116 74 60 0
-67 116 18 60 0
-67 74 18 60 0
-68 117 75 19 0
-68 117 75 61 0
-68 117 19 61 0
-68 75 19 61 0
-69 118 76 20 0
-69 118 76 62 0
-69 118 20 62 0
-69 76 20 62 0
-70 119 77 21 0
-70 119 77 63 0
-70 119 21 63 0
-70 77 21 63 0
-64 -113 -71 -15 0
-64 -113 -71 -57 0
-64 -113 -15 -57 0
-64 -71 -15 -57 0
-65 -114 -72 -16 0
-65 -114 -72 -58 0
-65 -114 -16 -58 0
-65 -72 -16 -58 0
-66 -115 -73 -17 0
-66 -115 -73 -59 0
-66 -115 -17 -59 0
-66 -73 -17 -59 0
-67 -116 -74 -18 0
-67 -116 -74 -60 0
-67 -116 -18 -60 0
-67 -74 -18 -60 0
-68 -117 -75 -19 0
-68 -117 -75 -61 0
-68 -117 -19 -61 0
-68 -75 -19 -61 0
-69 -118 -76 -20 0
-69 -118 -76 -62 0
-69 -118 -20 -62 0
-69 -76 -20 -62 0
-70 -119 -77 -21 0
-70 -119 -77 -63 0
-70 -119 -21 -63 0
-70 -77 -21 -63 0
350 351 0
-350 -351 0
-71 -72 0
-71 -73 0
-72 -73 0
-74 -75 0
-74 -76 0
-74 -77 0
-75 -76 0
-75 -77 0
-76 -77 0
-350 71 72 73 0
-351 73 74 75 76 77 0
350 -71 0
350 -72 0
350 -73 0
351 -74 0
351 -75 0
351 -76 0
351 -77 0
-71 120 78 22 0
-71 120 78 64 0
-71 120 22 64 0
-71 78 22 64 0
-72 121 79 23 0
-72 121 79 65 0
-72 121 23 65 0
-72 79 23 65 0
-73 122 80 24 0
-73 122 80 66 0
-73 122 24 66 0
-73 80 24 66 0
-74 123 81 25 0
-74 123 81 67 0
-74 123 25 67 0
-74 81 25 67 0
-75 124 82 26 0
-75 124 82 68 0
-75 124 26 68 0
-75 82 26 68 0
-76 125 83 27 0
-76 125 83 69 0
-76 125 27 69 0
-76 83 27 69 0
-77 126 84 28 0
-77 126 84 70 0
-77 126 28 70 0
-77 84 28 70 0
-71 -120 -78 -22 0
-71 -120 -78 -64 0
-71 -120 -22 -64 0
-71 -78 -22 -64 0
-72 -121 -79 -23 0
-72 -121 -79 -65 0
-72 -121 -23 -65 0
-72 -79 -23 -65 0
-73 -122 -80 -24 0
-73 -122 -80 -66 0
-73 -122 -24 -66 0
-73 -80 -24 -66 0
-74 -123 -81 -25 0
-74 -123 -81 -67 0
-74 -123 -25 -67 0
-74 -81 -25 -67 0
-75 -124 -82 -26 0
-75 -124 -82 -68 0
-75 -124 -26 -68 0
-75 -82 -26 -68 0
-76 -125 -83 -27 0
-76 -125 -83 -69 0
-76 -125 -27 -69 0
-76 -83 -27 -69 0
-77 -126 -84 -28 0
-77 -126 -84 -70 0
-77 -126 -28 -70 0
-77 -84 -28 -70 0
352 353 0
-352 -353 0
-78 -79 0
-78 -80 0
-79 -80 0
-81 -82 0
-81 -83 0
-81 -84 0
-82 -83 0
-82 -84 0
-83 -84 0
-352 78 79 80 0
-353 80 81 82 83 84 0
352 -78 0
352 -79 0
352 -80 0
353 -81 0
353 -82 0
353 -83 0
353 -84 0
-78 127 85 29 0
-78 127 85 71 0
-78 127 29 71 0
-78 85 29 71 0
-79 128 86 30 0
-79 128 86 72 0
-79 128 30 72 0
-79 86 30 72 0
-80 129 87 31 0
-80 129 87 73 0
-80 129 31 73 0
-80 87 31 73 0
-81 130 88 32 0
-81 130 88 74 0
-81 130 32 74 0
-81 88 32 74 0
-82 131 89 33 0
-82 131 89 75 0
-82 131 33 75 0
-82 89 33 75 0
-83 132 90 34 0
-83 132 90 76 0
-83 132 34 76 0
-83 90 34 76 0
-84 133 91 35 0
-84 133 91 77 0
-84 133 35 77 0
-84 91 35 77 0
-78 -127 -85 -29 0
-78 -127 -85 -71 0
-78 -127 -29 -71 0
-78 -85 -29 -71 0
-79 -128 -86 -30 0
-79 -128 -86 -72 0
-79 -128 -30 -72 0
-79 -86 -30 -72 0
-80 -129 -87 -31 0
-80 -129 -87 -73 0
-80 -129 -31 -73 0
-80 -87 -31 -73 0
-81 -130 -88 -32 0
-81 -130 -88 -74 0
-81 -130 -32 -74 0
-81 -88 -32 -74 0
-82 -131 -89 -33 0
-82 -131 -89 -75 0
-82 -131 -33 -75 0
-82 -89 -33 -75 0
-83 -132 -90 -34 0
-83 -132 -90 -76 0
-83 -132 -34 -76 0
-83 -90 -34 -76 0
-84 -133 -91 -35 0
-84 -133 -91 -77 0
-84 -133 -35 -77 0
-84 -91 -35 -77 0
354 355 0
-354 -355 0
-85 -86 0
-85 -87 0
-86 -87 0
-88 -89 0
-88 -90 0
-88 -91 0
-89 -90 0
-89 -91 0
-90 -91 0
-354 85 86 87 0
-355 87 88 89 90 91 0
354 -85 0
354 -86 0
354 -87 0
355 -88 0
355 -89 0
355 -90 0
355 -91 0
-85 134 92 36 0
-85 134 92 78 0
-85 134 36 78 0
-85 92 36 78 0
-86 135 93 37 0
-86 135 93 79 0
-86 135 37 79 0
-86 93 37 79 0
-87 136 94 38 0
-87 136 94 80 0
-87 136 38 80 0
-87 94 38 80 0
-88 137 95 39 0
-88 137 95 81 0
-88 137 39 81 0
-88 95 39 81 0
-89 138 96 40 0
-89 138 96 82 0
-89 138 40 82 0
-89 96 40 82 0
-90 139 97 41 0
-90 139 97 83 0
-90 139 41 83 0
-90 97 41 83 0
-91 140 98 42 0
-91 140 98 84 0
-91 140 42 84 0
-91 98 42 84 0
-85 -134 -92 -36 0
-85 -134 -92 -78 0
-85 -134 -36 -78 0
-85 -92 -36 -78 0
-86 -135 -93 -37 0
-86 -135 -93 -79 0
-86 -135 -37 -79 0
-86 -93 -37 -79 0
-87 -136 -94 -38 0
-87 -136 -94 -80 0
-87 -136 -38 -80 0
-87 -94 -38 -80 0
-88 -137 -95 -39 0
-88 -137 -95 -81 0
-88 -137 -39 -81 0
-88 -95 -39 -81 0
-89 -138 -96 -40 0
-89 -138 -96 -82 0
-89 -138 -40 -82 0
-89 -96 -40 -82 0
-90 -139 -97 -41 0
-90 -139 -97 -83 0
-90 -139 -41 -83 0
-90 -97 -41 -83 0
-91 -140 -98 -42 0
-91 -140 -98 -84 0
-91 -140 -42 -84 0
-91 -98 -42 -84 0
356 357 0
-356 -357 0
-92 -93 0
-92 -94 0
-93 -94 0
-95 -96 0
-95 -97 0
-95 -98 0
-96 -97 0
-96 -98 0
-97 -98 0
-356 92 93 94 0
-357 94 95 96 97 98 0
356 -92 0
356 -93 0
356 -94 0
357 -95 0
357 -96 0
357 -97 0
357 -98 0
-92 141 85 0
-92 141 43 0
-92 85 43 0
-93 142 86 0
-93 142 44 0
-93 86 44 0
-94 143 87 0
-94 143 45 0
-94 87 45 0
-95 144 88 0
-95 144 46 0
-95 88 46 0
-96 145 89 0
-96 145 47 0
-96 89 47 0
-97 146 90 0
-97 146 48 0
-97 90 48 0
-98 147 91 0
-98 147 49 0
-98 91 49 0
-92 -141 -85 -43 0
-93 -142 -86 -44 0
-94 -143 -87 -45 0
-95 -144 -88 -46 0
-96 -145 -89 -47 0
-97 -146 -90 -48 0
-98 -147 -91 -49 0
358 359 0
-358 -359 0
-99 -100 0
-99 -101 0
-100 -101 0
-102 -103 0
-102 -104 0
-102 -105 0
-103 -104 0
-103 -105 0
-104 -105 0
-358 99 100 101 0
-359 101 102 103 104 105 0
358 -99 0
358 -100 0
358 -101 0
359 -102 0
359 -103 0
359 -104 0
359 -105 0
-99 148 106 0
-99 148 50 0
-99 106 50 0
-100 149 107 0
-100 149 51 0
-100 107 51 0
-101 150 108 0
-101 150 52 0
-101 108 52 0
-102 151 109 0
-102 151 53 0
-102 109 53 0
-103 152 110 0
-103 152 54 0
-103 110 54 0
-104 153 111 0
-104 153 55 0
-104 111 55 0
-105 154 112 0
-105 154 56 0
-105 112 56 0
-99 -148 -106 -50 0
-100 -149 -107 -51 0
-101 -150 -108 -52 0
-102 -151 -109 -53 0
-103 -152 -110 -54 0
-104 -153 -111 -55 0
-105 -154 -112 -56 0
-106 0
-107 0
-108 0
-109 0
-110 0
-111 0
112 0
161 119 63 105 0
-161 -119 0
-161 -63 0
-161 -105 0
-119 -63 0
-119 -105 0
-63 -105 0
360 361 0
-360 -361 0
-113 -114 0
-113 -115 0
-114 -115 0
-116 -117 0
-116 -118 0
-116 -119 0
-117 -118 0
-117 -119 0
-118 -119 0
-360 113 114 115 0
-361 115 116 117 118 119 0
360 -113 0
360 -114 0
360 -115 0
361 -116 0
361 -117 0
361 -118 0
361 -119 0
-113 162 120 64 0
-113 162 120 106 0
-113 162 64 106 0
-113 120 64 106 0
-114 163 121 65 0
-114 163 121 107 0
-114 163 65 107 0
-114 121 65 107 0
-115 164 122 66 0
-115 164 122 108 0
-115 164 66 108 0
-115 122 66 108 0
-116 165 123 67 0
-116 165 123 109 0
-116 165 67 109 0
-116 123 67 109 0
-117 166 124 68 0
-117 166 124 110 0
-117 166 68 110 0
-117 124 68 110 0
-118 167 125 69 0
-118 167 125 111 0
-118 167 69 111 0
-118 125 69 111 0
-119 168 126 70 0
-119 168 126 112 0
-119 168 70 112 0
-119 126 70 112 0
-113 -162 -120 -64 0
-113 -162 -120 -106 0
-113 -162 -64 -106 0
-113 -120 -64 -106 0
-114 -163 -121 -65 0
-114 -163 -121 -107 0
-114 -163 -65 -107 0
-114 -121 -65 -107 0
-115 -164 -122 -66 0
-115 -164 -122 -108 0
-115 -164 -66 -108 0
-115 -122 -66 -108 0
-116 -165 -123 -67 0
-116 -165 -123 -109 0
-116 -165 -67 -109 0
-116 -123 -67 -109 0
-117 -166 -124 -68 0
-117 -166 -124 -110 0
-117 -166 -68 -110 0
-117 -124 -68 -110 0
-118 -167 -125 -69 0
-118 -167 -125 -111 0
-118 -167 -69 -111 0
-118 -125 -69 -111 0
-119 -168 -126 -70 0
-119 -168 -126 -112 0
-119 -168 -70 -112 0
-119 -126 -70 -112 0
362 363 0
-362 -363 0
-120 -121 0
-120 -122 0
-121 -122 0
-123 -124 0
-123 -125 0
-123 -126 0
-124 -125 0
-124 -126 0
-125 -126 0
-362 120 121 122 0
-363 122 123 124 125 126 0
362 -120 0
362 -121 0
362 -122 0
363 -123 0
363 -124 0
363 -125 0
363 -126 0
-120 169 127 71 0
-120 169 127 113 0
-120 169 71 113 0
-120 127 71 113 0
-121 170 128 72 0
-121 170 128 114 0
-121 170 72 114 0
-121 128 72 114 0
-122 171 129 73 0
-122 171 129 115 0
-122 171 73 115 0
-122 129 73 115 0
-123 172 130 74 0
-123 172 130 116 0
-123 172 74 116 0
-123 130 74 116 0
-124 173 131 75 0
-124 173 131 117 0
-124 173 75 117 0
-124 131 75 117 0
-125 174 132 76 0
-125 174 132 118 0
-125 174 76 118 0
-125 132 76 118 0
-126 175 133 77 0
-126 175 133 119 0
-126 175 77 119 0
-126 133 77 119 0
-120 -169 -127 -71 0
-120 -169 -127 -113 0
-120 -169 -71 -113 0
-120 -127 -71 -113 0
-121 -170 -128 -72 0
-121 -170 -128 -114 0
-121 -170 -72 -114 0
-121 -128 -72 -114 0
-122 -171 -129 -73 0
-122 -171 -129 -115 0
-122 -171 -73 -115 0
-122 -129 -73 -115 0
-123 -172 -130 -74 0
-123 -172 -130 -116 0
-123 -172 -74 -116 0
-123 -130 -74 -116 0
-124 -173 -131 -75 0
-124 -173 -131 -117 0
-124 -173 -75 -117 0
-124 -131 -75 -117 0
-125 -174 -132 -76 0
-125 -174 -132 -118 0
-125 -174 -76 -118 0
-125 -132 -76 -118 0
-126 -175 -133 -77 0
-126 -175 -133 -119 0
-126 -175 -77 -119 0
-126 -133 -77 -119 0
364 365 0
-364 -365 0
-127 -128 0
-127 -129 0
-128 -129 0
-130 -131 0
-130 -132 0
-130 -133 0
-131 -132 0
-131 -133 0
-132 -133 0
-364 127 128 129 0
-365 129 130 131 132 133 0
364 -127 0
364 -128 0
364 -129 0
365 -130 0
365 -131 0
365 -132 0
365 -133 0
-127 176 134 78 0
-127 176 134 120 0
-127 176 78 120 0
-127 134 78 120 0
-128 177 135 79 0
-128 177 135 121 0
-128 177 79 121 0
-128 135 79 121 0
-129 178 136 80 0
-129 178 136 122 0
-129 178 80 122 0
-129 136 80 122 0
-130 179 137 81 0
-130 179 137 123 0
-130 179 81 123 0
-130 137 81 123 0
-131 180 138 82 0
-131 180 138 124 0
-131 180 82 124 0
-131 138 82 124 0
-132 181 139 83 0
-132 181 139 125 0
-132 181 83 125 0
-132 139 83 125 0
-133 182 140 84 0
-133 182 140 126 0
-133 182 84 126 0
-133 140 84 126 0
-127 -176 -134 -78 0
-127 -176 -134 -120 0
-127 -176 -78 -120 0
-127 -134 -78 -120 0
-128 -177 -135 -79 0
-128 -177 -135 -121 0
-128 -177 -79 -121 0
-128 -135 -79 -121 0
-129 -178 -136 -80 0
-129 -178 -136 -122 0
-129 -178 -80 -122 0
-129 -136 -80 -122 0
-130 -179 -137 -81 0
-130 -179 -137 -123 0
-130 -179 -81 -123 0
-130 -137 -81 -123 0
-131 -180 -138 -82 0
-131 -180 -138 -124 0
-131 -180 -82 -124 0
-131 -138 -82 -124 0
-132 -181 -139 -83 0
-132 -181 -139 -125 0
-132 -181 -83 -125 0
-132 -139 -83 -125 0
-133 -182 -140 -84 0
-133 -182 -140 -126 0
-133 -182 -84 -126 0
-133 -140 -84 -126 0
366 367 0
-366 -367 0
-134 -135 0
-134 -136 0
-135 -136 0
-137 -138 0
-137 -139 0
-137 -140 0
-138 -139 0
-138 -140 0
-139 -140 0
-366 134 135 136 0
-367 136 137 138 139 140 0
366 -134 0
366 -135 0
366 -136 0
367 -137 0
367 -138 0
367 -139 0
367 -140 0
-134 183 141 85 0
-134 183 141 127 0
-134 183 85 127 0
-134 141 85 127 0
-135 184 142 86 0
-135 184 142 128 0
-135 184 86 128 0
-135 142 86 128 0
-136 185 143 87 0
-136 185 143 129 0
-136 185 87 129 0
-136 143 87 129 0
-137 186 144 88 0
-137 186 144 130 0
-137 186 88 130 0
-137 144 88 130 0
-138 187 145 89 0
-138 187 145 131 0
-138 187 89 131 0
-138 145 89 131 0
-139 188 146 90 0
-139 188 146 132 0
-139 188 90 132 0
-139 146 90 132 0
-140 189 147 91 0
-140 189 147 133 0
-140 189 91 133 0
-140 147 91 133 0
-134 -183 -141 -85 0
-134 -183 -141 -127 0
-134 -183 -85 -127 0
-134 -141 -85 -127 0
-135 -184 -142 -86 0
-135 -184 -142 -128 0
-135 -184 -86 -128 0
-135 -142 -86 -128 0
-136 -185 -143 -87 0
-136 -185 -143 -129 0
-136 -185 -87 -129 0
-136 -143 -87 -129 0
-137 -186 -144 -88 0
-137 -186 -144 -130 0
-137 -186 -88 -130 0
-137 -144 -88 -130 0
-138 -187 -145 -89 0
-138 -187 -145 -131 0
-138 -187 -89 -131 0
-138 -145 -89 -131 0
-139 -188 -146 -90 0
-139 -188 -146 -132 0
-139 -188 -90 -132 0
-139 -146 -90 -132 0
-140 -189 -147 -91 0
-140 -189 -147 -133 0
-140 -189 -91 -133 0
-140 -147 -91 -133 0
368 369 0
-368 -369 0
-141 -142 0
-141 -143 0
-142 -143 0
-144 -145 0
-144 -146 0
-144 -147 0
-145 -146 0
-145 -147 0
-146 -147 0
-368 141 142 143 0
-369 143 144 145 146 147 0
368 -141 0
368 -142 0
368 -143 0
369 -144 0
369 -145 0
369 -146 0
369 -147 0
-141 190 134 0
-141 190 92 0
-141 134 92 0
-142 191 135 0
-142 191 93 0
-142 135 93 0
-143 192 136 0
-143 192 94 0
-143 136 94 0
-144 193 137 0
-144 193 95 0
-144 137 95 0
-145 194 138 0
-145 194 96 0
-145 138 96 0
-146 195 139 0
-146 195 97 0
-146 139 97 0
-147 196 140 0
-147 196 98 0
-147 140 98 0
-141 -190 -134 -92 0
-142 -191 -135 -93 0
-143 -192 -136 -94 0
-144 -193 -137 -95 0
-145 -194 -138 -96 0
-146 -195 -139 -97 0
-147 -196 -140 -98 0
370 371 0
-370 -371 0
-148 -149 0
-148 -150 0
-149 -150 0
-151 -152 0
-151 -153 0
-151 -154 0
-152 -153 0
-152 -154 0
-153 -154 0
-370 148 149 150 0
-371 150 151 152 153 154 0
370 -148 0
370 -149 0
370 -150 0
371 -151 0
371 -152 0
371 -153 0
371 -154 0
-148 197 155 0
-148 197 99 0
-148 155 99 0
-149 198 156 0
-149 198 100 0
-149 156 100 0
-150 199 157 0
-150 199 101 0
-150 157 101 0
-151 200 158 0
-151 200 102 0
-151 158 102 0
-152 201 159 0
-152 201 103 0
-152 159 103 0
-153 202 160 0
-153 202 104 0
-153 160 104 0
-154 203 161 0
-154 203 105 0
-154 161 105 0
-148 -197 -155 -99 0
-149 -198 -156 -100 0
-150 -199 -157 -101 0
-151 -200 -158 -102 0
-152 -201 -159 -103 0
-153 -202 -160 -104 0
-154 -203 -161 -105 0
372 373 0
-372 -373 0
-155 -156 0
-155 -157 0
-156 -157 0
-158 -159 0
-158 -160 0
-158 -161 0
-159 -160 0
-159 -161 0
-160 -161 0
-372 155 156 157 0
-373 157 158 159 160 161 0
372 -155 0
372 -156 0
372 -157 0
373 -158 0
373 -159 0
373 -160 0
373 -161 0
-155 204 162 106 0
-155 204 162 148 0
-155 204 106 148 0
-155 162 106 148 0
-156 205 163 107 0
-156 205 163 149 0
-156 205 107 149 0
-156 163 107 149 0
-157 206 164 108 0
-157 206 164 150 0
-157 206 108 150 0
-157 164 108 150 0
-158 207 165 109 0
-158 207 165 151 0
-158 207 109 151 0
-158 165 109 151 0
-159 208 166 110 0
-159 208 166 152 0
-159 208 110 152 0
-159 166 110 152 0
-160 209 167 111 0
-160 209 167 153 0
-160 209 111 153 0
-160 167 111 153 0
-161 210 168 112 0
-161 210 168 154 0
-161 210 112 154 0
-161 168 112 154 0
-155 -204 -162 -106 0
-155 -204 -162 -148 0
-155 -204 -106 -148 0
-155 -162 -106 -148 0
-156 -205 -163 -107 0
-156 -205 -163 -149 0
-156 -205 -107 -149 0
-156 -163 -107 -149 0
-157 -206 -164 -108 0
-157 -206 -164 -150 0
-157 -206 -108 -150 0
-157 -164 -108 -150 0
-158 -207 -165 -109 0
-158 -207 -165 -151 0
-158 -207 -109 -151 0
-158 -165 -109 -151 0
-159 -208 -166 -110 0
-159 -208 -166 -152 0
-159 -208 -110 -152 0
-159 -166 -110 -152 0
-160 -209 -167 -111 0
-160 -209 -167 -153 0
-160 -209 -111 -153 0
-160 -167 -111 -153 0
-161 -210 -168 -112 0
-161 -210 -168 -154 0
-161 -210 -112 -154 0
-161 -168 -112 -154 0
374 375 0
-374 -375 0
-162 -163 0
-162 -164 0
-163 -164 0
-165 -166 0
-165 -167 0
-165 -168 0
-166 -167 0
-166 -168 0
-167 -168 0
-374 162 163 164 0
-375 164 165 166 167 168 0
374 -162 0
374 -163 0
374 -164 0
375 -165 0
375 -166 0
375 -167 0
375 -168 0
-162 211 169 113 0
-162 211 169 155 0
-162 211 113 155 0
-162 169 113 155 0
-163 212 170 114 0
-163 212 170 156 0
-163 212 114 156 0
-163 170 114 156 0
-164 213 171 115 0
-164 213 171 157 0
-164 213 115 157 0
-164 171 115 157 0
-165 214 172 116 0
-165 214 172 158 0
-165 214 116 158 0
-165 172 116 158 0
-166 215 173 117 0
-166 215 173 159 0
-166 215 117 159 0
-166 173 117 159 0
-167 216 174 118 0
-167 216 174 160 0
-167 216 118 160 0
-167 174 118 160 0
-168 217 175 119 0
-168 217 175 161 0
-168 217 119 161 0
-168 175 119 161 0
-162 -211 -169 -113 0
-162 -211 -169 -155 0
-162 -211 -113 -155 0
-162 -169 -113 -155 0
-163 -212 -170 -114 0
-163 -212 -170 -156 0
-163 -212 -114 -156 0
-163 -170 -114 -156 0
-164 -213 -171 -115 0
-164 -213 -171 -157 0
-164 -213 -115 -157 0
-164 -171 -115 -157 0
-165 -214 -172 -116 0
-165 -214 -172 -158 0
-165 -214 -116 -158 0
-165 -172 -116 -158 0
-166 -215 -173 -117 0
-166 -215 -173 -159 0
-166 -215 -117 -159 0
-166 -173 -117 -159 0
-167 -216 -174 -118 0
-167 -216 -174 -160 0
-167 -216 -118 -160 0
-167 -174 -118 -160 0
-168 -217 -175 -119 0
-168 -217 -175 -161 0
-168 -217 -119 -161 0
-168 -175 -119 -161 0
376 377 0
-376 -377 0
-169 -170 0
-169 -171 0
-170 -171 0
-172 -173 0
-172 -174 0
-172 -175 0
-173 -174 0
-173 -175 0
-174 -175 0
-376 169 170 171 0
-377 171 172 173 174 175 0
376 -169 0
376 -170 0
376 -171 0
377 -172 0
377 -173 0
377 -174 0
377 -175 0
-169 218 176 120 0
-169 218 176 162 0
-169 218 120 162 0
-169 176 120 162 0
-170 219 177 121 0
-170 219 177 163 0
-170 219 121 163 0
-170 177 121 163 0
-171 220 178 122 0
-171 220 178 164 0
-171 220 122 164 0
-171 178 122 164 0
-172 221 179 123 0
-172 221 179 165 0
-172 221 123 165 0
-172 179 123 165 0
-173 222 180 124 0
-173 222 180 166 0
-173 222 124 166 0
-173 180 124 166 0
-174 223 181 125 0
-174 223 181 167 0
-174 223 125 167 0
-174 181 125 167 0
-175 224 182 126 0
-175 224 182 168 0
-175 224 126 168 0
-175 182 126 168 0
-169 -218 -176 -120 0
-169 -218 -176 -162 0
-169 -218 -120 -162 0
-169 -176 -120 -162 0
-170 -219 -177 -121 0
-170 -219 -177 -163 0
-170 -219 -121 -163 0
-170 -177 -121 -163 0
-171 -220 -178 -122 0
-171 -220 -178 -164 0
-171 -220 -122 -164 0
-171 -178 -122 -164 0
-172 -221 -179 -123 0
-172 -221 -179 -165 0
-172 -221 -123 -165 0
-172 -179 -123 -165 0
-173 -222 -180 -124 0
-173 -222 -180 -166 0
-173 -222 -124 -166 0
-173 -180 -124 -166 0
-174 -223 -181 -125 0
-174 -223 -181 -167 0
-174 -223 -125 -167 0
-174 -181 -125 -167 0
-175 -224 -182 -126 0
-175 -224 -182 -168 0
-175 -224 -126 -168 0
-175 -182 -126 -168 0
-176 0
-177 0
-179 0
-180 0
-181 0
-182 0
178 0
227 185 129 171 0
-227 -185 0
-227 -129 0
-227 -171 0
-185 -129 0
-185 -171 0
-129 -171 0
378 379 0
-378 -379 0
-183 -184 0
-183 -185 0
-184 -185 0
-186 -187 0
-186 -188 0
-186 -189 0
-187 -188 0
-187 -189 0
-188 -189 0
-378 183 184 185 0
-379 185 186 187 188 189 0
378 -183 0
378 -184 0
378 -185 0
379 -186 0
379 -187 0
379 -188 0
379 -189 0
-183 232 190 134 0
-183 232 190 176 0
-183 232 134 176 0
-183 190 134 176 0
-184 233 191 135 0
-184 233 191 177 0
-184 233 135 177 0
-184 191 135 177 0
-185 234 192 136 0
-185 234 192 178 0
-185 234 136 178 0
-185 192 136 178 0
-186 235 193 137 0
-186 235 193 179 0
-186 235 137 179 0
-186 193 137 179 0
-187 236 194 138 0
-187 236 194 180 0
-187 236 138 180 0
-187 194 138 180 0
-188 237 195 139 0
-188 237 195 181 0
-188 237 139 181 0
-188 195 139 181 0
-189 238 196 140 0
-189 238 196 182 0
-189 238 140 182 0
-189 196 140 182 0
-183 -232 -190 -134 0
-183 -232 -190 -176 0
-183 -232 -134 -176 0
-183 -190 -134 -176 0
-184 -233 -191 -135 0
-184 -233 -191 -177 0
-184 -233 -135 -177 0
-184 -191 -135 -177 0
-185 -234 -192 -136 0
-185 -234 -192 -178 0
-185 -234 -136 -178 0
-185 -192 -136 -178 0
-186 -235 -193 -137 0
-186 -235 -193 -179 0
-186 -235 -137 -179 0
-186 -193 -137 -179 0
-187 -236 -194 -138 0
-187 -236 -194 -180 0
-187 -236 -138 -180 0
-187 -194 -138 -180 0
-188 -237 -195 -139 0
-188 -237 -195 -181 0
-188 -237 -139 -181 0
-188 -195 -139 -181 0
-189 -238 -196 -140 0
-189 -238 -196 -182 0
-189 -238 -140 -182 0
-189 -196 -140 -182 0
380 381 0
-380 -381 0
-190 -191 0
-190 -192 0
-191 -192 0
-193 -194 0
-193 -195 0
-193 -196 0
-194 -195 0
-194 -196 0
-195 -196 0
-380 190 191 192 0
-381 192 193 194 195 196 0
380 -190 0
380 -191 0
380 -192 0
381 -193 0
381 -194 0
381 -195 0
381 -196 0
-190 239 183 0
-190 239 141 0
-190 183 141 0
-191 240 184 0
-191 240 142 0
-191 184 142 0
-192 241 185 0
-192 241 143 0
-192 185 143 0
-193 242 186 0
-193 242 144 0
-193 186 144 0
-194 243 187 0
-194 243 145 0
-194 187 145 0
-195 244 188 0
-195 244 146 0
-195 188 146 0
-196 245 189 0
-196 245 147 0
-196 189 147 0
-190 -239 -183 -141 0
-191 -240 -184 -142 0
-192 -241 -185 -143 0
-193 -242 -186 -144 0
-194 -243 -187 -145 0
-195 -244 -188 -146 0
-196 -245 -189 -147 0
382 383 0
-382 -383 0
-197 -198 0
-197 -199 0
-198 -199 0
-200 -201 0
-200 -202 0
-200 -203 0
-201 -202 0
-201 -203 0
-202 -203 0
-382 197 198 199 0
-383 199 200 201 202 203 0
382 -197 0
382 -198 0
382 -199 0
383 -200 0
383 -201 0
383 -202 0
383 -203 0
-197 246 204 0
-197 246 148 0
-197 204 148 0
-198 247 205 0
-198 247 149 0
-198 205 149 0
-199 248 206 0
-199 248 150 0
-199 206 150 0
-200 249 207 0
-200 249 151 0
-200 207 151 0
-201 250 208 0
-201 250 152 0
-201 208 152 0
-202 251 209 0
-202 251 153 0
-202 209 153 0
-203 252 210 0
-203 252 154 0
-203 210 154 0
-197 -246 -204 -148 0
-198 -247 -205 -149 0
-199 -248 -206 -150 0
-200 -249 -207 -151 0
-201 -250 -208 -152 0
-202 -251 -209 -153 0
-203 -252 -210 -154 0
384 385 0
-384 -385 0
-204 -205 0
-204 -206 0
-205 -206 0
-207 -208 0
-207 -209 0
-207 -210 0
-208 -209 0
-208 -210 0
-209 -210 0
-384 204 205 206 0
-385 206 207 208 209 210 0
384 -204 0
384 -205 0
384 -206 0
385 -207 0
385 -208 0
385 -209 0
385 -210 0
-204 253 211 155 0
-204 253 211 197 0
-204 253 155 197 0
-204 211 155 197 0
-205 254 212 156 0
-205 254 212 198 0
-205 254 156 198 0
-205 212 156 198 0
-206 255 213 157 0
-206 255 213 199 0
-206 255 157 199 0
-206 213 157 199 0
-207 256 214 158 0
-207 256 214 200 0
-207 256 158 200 0
-207 214 158 200 0
-208 257 215 159 0
-208 257 215 201 0
-208 257 159 201 0
-208 215 159 201 0
-209 258 216 160 0
-209 258 216 202 0
-209 258 160 202 0
-209 216 160 202 0
-210 259 217 161 0
-210 259 217 203 0
-210 259 161 203 0
-210 217 161 203 0
-204 -253 -211 -155 0
-204 -253 -211 -197 0
-204 -253 -155 -197 0
-204 -211 -155 -197 0
-205 -254 -212 -156 0
-205 -254 -212 -198 0
-205 -254 -156 -198 0
-205 -212 -156 -198 0
-206 -255 -213 -157 0
-206 -255 -213 -199 0
-206 -255 -157 -199 0
-206 -213 -157 -199 0
-207 -256 -214 -158 0
-207 -256 -214 -200 0
-207 -256 -158 -200 0
-207 -214 -158 -200 0
-208 -257 -215 -159 0
-208 -257 -215 -201 0
-208 -257 -159 -201 0
-208 -215 -159 -201 0
-209 -258 -216 -160 0
-209 -258 -216 -202 0
-209 -258 -160 -202 0
-209 -216 -160 -202 0
-210 -259 -217 -161 0
-210 -259 -217 -203 0
-210 -259 -161 -203 0
-210 -217 -161 -203 0
386 387 0
-386 -387 0
-211 -212 0
-211 -213 0
-212 -213 0
-214 -215 0
-214 -216 0
-214 -217 0
-215 -216 0
-215 -217 0
-216 -217 0
-386 211 212 213 0
-387 213 214 215 216 217 0
386 -211 0
386 -212 0
386 -213 0
387 -214 0
387 -215 0
387 -216 0
387 -217 0
-211 260 218 162 0
-211 260 218 204 0
-211 260 162 204 0
-211 218 162 204 0
-212 261 219 163 0
-212 261 219 205 0
-212 261 163 205 0
-212 219 163 205 0
-213 262 220 164 0
-213 262 220 206 0
-213 262 164 206 0
-213 220 164 206 0
-214 263 221 165 0
-214 263 221 207 0
-214 263 165 207 0
-214 221 165 207 0
-215 264 222 166 0
-215 264 222 208 0
-215 264 166 208 0
-215 222 166 208 0
-216 265 223 167 0
-216 265 223 209 0
-216 265 167 209 0
-216 223 167 209 0
-217 266 224 168 0
-217 266 224 210 0
-217 266 168 210 0
-217 224 168 210 0
-211 -260 -218 -162 0
-211 -260 -218 -204 0
-211 -260 -162 -204 0
-211 -218 -162 -204 0
-212 -261 -219 -163 0
-212 -261 -219 -205 0
-212 -261 -163 -205 0
-212 -219 -163 -205 0
-213 -262 -220 -164 0
-213 -262 -220 -206 0
-213 -262 -164 -206 0
-213 -220 -164 -206 0
-214 -263 -221 -165 0
-214 -263 -221 -207 0
-214 -263 -165 -207 0
-214 -221 -165 -207 0
-215 -264 -222 -166 0
-215 -264 -222 -208 0
-215 -264 -166 -208 0
-215 -222 -166 -208 0
-216 -265 -223 -167 0
-216 -265 -223 -209 0
-216 -265 -167 -209 0
-216 -223 -167 -209 0
-217 -266 -224 -168 0
-217 -266 -224 -210 0
-217 -266 -168 -210 0
-217 -224 -168 -210 0
388 389 0
-388 -389 0
-218 -219 0
-218 -220 0
-219 -220 0
-221 -222 0
-221 -223 0
-221 -224 0
-222 -223 0
-222 -224 0
-223 -224 0
-388 218 219 220 0
-389 220 221 222 223 224 0
388 -218 0
388 -219 0
388 -220 0
389 -221 0
389 -222 0
389 -223 0
389 -224 0
-218 267 225 169 0
-218 267 225 211 0
-218 267 169 211 0
-218 225 169 211 0
-219 268 226 170 0
-219 268 226 212 0
-219 268 170 212 0
-219 226 170 212 0
-220 269 227 171 0
-220 269 227 213 0
-220 269 171 213 0
-220 227 171 213 0
-221 270 228 172 0
-221 270 228 214 0
-221 270 172 214 0
-221 228 172 214 0
-222 271 229 173 0
-222 271 229 215 0
-222 271 173 215 0
-222 229 173 215 0
-223 272 230 174 0
-223 272 230 216 0
-223 272 174 216 0
-223 230 174 216 0
-224 273 231 175 0
-224 273 231 217 0
-224 273 175 217 0
-224 231 175 217 0
-218 -267 -225 -169 0
-218 -267 -225 -211 0
-218 -267 -169 -211 0
-218 -225 -169 -211 0
-219 -268 -226 -170 0
-219 -268 -226 -212 0
-219 -268 -170 -212 0
-219 -226 -170 -212 0
-220 -269 -227 -171 0
-220 -269 -227 -213 0
-220 -269 -171 -213 0
-220 -227 -171 -213 0
-221 -270 -228 -172 0
-221 -270 -228 -214 0
-221 -270 -172 -214 0
-221 -228 -172 -214 0
-222 -271 -229 -173 0
-222 -271 -229 -215 0
-222 -271 -173 -215 0
-222 -229 -173 -215 0
-223 -272 -230 -174 0
-223 -272 -230 -216 0
-223 -272 -174 -216 0
-223 -230 -174 -216 0
-224 -273 -231 -175 0
-224 -273 -231 -217 0
-224 -273 -175 -217 0
-224 -231 -175 -217 0
390 391 0
-390 -391 0
-225 -226 0
-225 -227 0
-226 -227 0
-228 -229 0
-228 -230 0
-228 -231 0
-229 -230 0
-229 -231 0
-230 -231 0
-390 225 226 227 0
-391 227 228 229 230 231 0
390 -225 0
390 -226 0
390 -227 0
391 -228 0
391 -229 0
391 -230 0
391 -231 0
-225 274 232 176 0
-225 274 232 218 0
-225 274 176 218 0
-225 232 176 218 0
-226 275 233 177 0
-226 275 233 219 0
-226 275 177 219 0
-226 233 177 219 0
-227 276 234 178 0
-227 276 234 220 0
-227 276 178 220 0
-227 234 178 220 0
-228 277 235 179 0
-228 277 235 221 0
-228 277 179 221 0
-228 235 179 221 0
-229 278 236 180 0
-229 278 236 222 0
-229 278 180 222 0
-229 236 180 222 0
-230 279 237 181 0
-230 279 237 223 0
-230 279 181 223 0
-230 237 181 223 0
-231 280 238 182 0
-231 280 238 224 0
-231 280 182 224 0
-231 238 182 224 0
-225 -274 -232 -176 0
-225 -274 -232 -218 0
-225 -274 -176 -218 0
-225 -232 -176 -218 0
-226 -275 -233 -177 0
-226 -275 -233 -219 0
-226 -275 -177 -219 0
-226 -233 -177 -219 0
-227 -276 -234 -178 0
-227 -276 -234 -220 0
-227 -276 -178 -220 0
-227 -234 -178 -220 0
-228 -277 -235 -179 0
-228 -277 -235 -221 0
-228 -277 -179 -221 0
-228 -235 -179 -221 0
-229 -278 -236 -180 0
-229 -278 -236 -222 0
-229 -278 -180 -222 0
-229 -236 -180 -222 0
-230 -279 -237 -181 0
-230 -279 -237 -223 0
-230 -279 -181 -223 0
-230 -237 -181 -223 0
-231 -280 -238 -182 0
-231 -280 -238 -224 0
-231 -280 -182 -224 0
-231 -238 -182 -224 0
392 393 0
-392 -393 0
-232 -233 0
-232 -234 0
-233 -234 0
-235 -236 0
-235 -237 0
-235 -238 0
-236 -237 0
-236 -238 0
-237 -238 0
-392 232 233 234 0
-393 234 235 236 237 238 0
392 -232 0
392 -233 0
392 -234 0
393 -235 0
393 -236 0
393 -237 0
393 -238 0
-232 281 239 183 0
-232 281 239 225 0
-232 281 183 225 0
-232 239 183 225 0
-233 282 240 184 0
-233 282 240 226 0
-233 282 184 226 0
-233 240 184 226 0
-234 283 241 185 0
-234 283 241 227 0
-234 283 185 227 0
-234 241 185 227 0
-235 284 242 186 0
-235 284 242 228 0
-235 284 186 228 0
-235 242 186 228 0
-236 285 243 187 0
-236 285 243 229 0
-236 285 187 229 0
-236 243 187 229 0
-237 286 244 188 0
-237 286 244 230 0
-237 286 188 230 0
-237 244 188 230 0
-238 287 245 189 0
-238 287 245 231 0
-238 287 189 231 0
-238 245 189 231 0
-232 -281 -239 -183 0
-232 -281 -239 -225 0
-232 -281 -183 -225 0
-232 -239 -183 -225 0
-233 -282 -240 -184 0
-233 -282 -240 -226 0
-233 -282 -184 -226 0
-233 -240 -184 -226 0
-234 -283 -241 -185 0
-234 -283 -241 -227 0
-234 -283 -185 -227 0
-234 -241 -185 -227 0
-235 -284 -242 -186 0
-235 -284 -242 -228 0
-235 -284 -186 -228 0
-235 -242 -186 -228 0
-236 -285 -243 -187 0
-236 -285 -243 -229 0
-236 -285 -187 -229 0
-236 -243 -187 -229 0
-237 -286 -244 -188 0
-237 -286 -244 -230 0
-237 -286 -188 -230 0
-237 -244 -188 -230 0
-238 -287 -245 -189 0
-238 -287 -245 -231 0
-238 -287 -189 -231 0
-238 -245 -189 -231 0
394 395 0
-394 -395 0
-239 -240 0
-239 -241 0
-240 -241 0
-242 -243 0
-242 -244 0
-242 -245 0
-243 -244 0
-243 -245 0
-244 -245 0
-394 239 240 241 0
-395 241 242 243 244 245 0
394 -239 0
394 -240 0
394 -241 0
395 -242 0
395 -243 0
395 -244 0
395 -245 0
-239 288 232 0
-239 288 190 0
-239 232 190 0
-240 289 233 0
-240 289 191 0
-240 233 191 0
-241 290 234 0
-241 290 192 0
-241 234 192 0
-242 291 235 0
-242 291 193 0
-242 235 193 0
-243 292 236 0
-243 292 194 0
-243 236 194 0
-244 293 237 0
-244 293 195 0
-244 237 195 0
-245 294 238 0
-245 294 196 0
-245 238 196 0
-239 -288 -232 -190 0
-240 -289 -233 -191 0
-241 -290 -234 -192 0
-242 -291 -235 -193 0
-243 -292 -236 -194 0
-244 -293 -237 -195 0
-245 -294 -238 -196 0
396 397 0
-396 -397 0
-246 -247 0
-246 -248 0
-247 -248 0
-249 -250 0
-249 -251 0
-249 -252 0
-250 -251 0
-250 -252 0
-251 -252 0
-396 246 247 248 0
-397 248 249 250 251 252 0
396 -246 0
396 -247 0
396 -248 0
397 -249 0
397 -250 0
397 -251 0
397 -252 0
-246 295 253 0
-246 295 197 0
-246 253 197 0
-247 296 254 0
-247 296 198 0
-247 254 198 0
-248 297 255 0
-248 297 199 0
-248 255 199 0
-249 298 256 0
-249 298 200 0
-249 256 200 0
-250 299 257 0
-250 299 201 0
-250 257 201 0
-251 300 258 0
-251 300 202 0
-251 258 202 0
-252 301 259 0
-252 301 203 0
-252 259 203 0
-246 -295 -253 -197 0
-247 -296 -254 -198 0
-248 -297 -255 -199 0
-249 -298 -256 -200 0
-250 -299 -257 -201 0
-251 -300 -258 -202 0
-252 -301 -259 -203 0
398 399 0
-398 -399 0
-253 -254 0
-253 -255 0
-254 -255 0
-256 -257 0
-256 -258 0
-256 -259 0
-257 -258 0
-257 -259 0
-258 -259 0
-398 253 254 255 0
-399 255 256 257 258 259 0
398 -253 0
398 -254 0
398 -255 0
399 -256 0
399 -257 0
399 -258 0
399 -259 0
-253 302 260 204 0
-253 302 260 246 0
-253 302 204 246 0
-253 260 204 246 0
-254 303 261 205 0
-254 303 261 247 0
-254 303 205 247 0
-254 261 205 247 0
-255 304 262 206 0
-255 304 262 248 0
-255 304 206 248 0
-255 262 206 248 0
-256 305 263 207 0
-256 305 263 249 0
-256 305 207 249 0
-256 263 207 249 0
-257 306 264 208 0
-257 306 264 250 0
-257 306 208 250 0
-257 264 208 250 0
-258 307 265 209 0
-258 307 265 251 0
-258 307 209 251 0
-258 265 209 251 0
-259 308 266 210 0
-259 308 266 252 0
-259 308 210 252 0
-259 266 210 252 0
-253 -302 -260 -204 0
-253 -302 -260 -246 0
-253 -302 -204 -246 0
-253 -260 -204 -246 0
-254 -303 -261 -205 0
-254 -303 -261 -247 0
-254 -303 -205 -247 0
-254 -261 -205 -247 0
-255 -304 -262 -206 0
-255 -304 -262 -248 0
-255 -304 -206 -248 0
-255 -262 -206 -248 0
-256 -305 -263 -207 0
-256 -305 -263 -249 0
-256 -305 -207 -249 0
-256 -263 -207 -249 0
-257 -306 -264 -208 0
-257 -306 -264 -250 0
-257 -306 -208 -250 0
-257 -264 -208 -250 0
-258 -307 -265 -209 0
-258 -307 -265 -251 0
-258 -307 -209 -251 0
-258 -265 -209 -251 0
-259 -308 -266 -210 0
-259 -308 -266 -252 0
-259 -308 -210 -252 0
-259 -266 -210 -252 0
-260 0
-262 0
-263 0
-264 0
-265 0
-266 0
261 0
310 268 212 254 0
-310 -268 0
-310 -212 0
-310 -254 0
-268 -212 0
-268 -254 0
-212 -254 0
-267 0
-268 0
-269 0
-271 0
-272 0
-273 0
270 0
319 277 221 263 0
-319 -277 0
-319 -221 0
-319 -263 0
-277 -221 0
-277 -263 0
-221 -263 0
400 401 0
-400 -401 0
-274 -275 0
-274 -276 0
-275 -276 0
-277 -278 0
-277 -279 0
-277 -280 0
-278 -279 0
-278 -280 0
-279 -280 0
-400 274 275 276 0
-401 276 277 278 279 280 0
400 -274 0
400 -275 0
400 -276 0
401 -277 0
401 -278 0
401 -279 0
401 -280 0
-274 323 281 225 0
-274 323 281 267 0
-274 323 225 267 0
-274 281 225 267 0
-275 324 282 226 0
-275 324 282 268 0
-275 324 226 268 0
-275 282 226 268 0
-276 325 283 227 0
-276 325 283 269 0
-276 325 227 269 0
-276 283 227 269 0
-277 326 284 228 0
-277 326 284 270 0
-277 326 228 270 0
-277 284 228 270 0
-278 327 285 229 0
-278 327 285 271 0
-278 327 229 271 0
-278 285 229 271 0
-279 328 286 230 0
-279 328 286 272 0
-279 328 230 272 0
-279 286 230 272 0
-280 329 287 231 0
-280 329 287 273 0
-280 329 231 273 0
-280 287 231 273 0
-274 -323 -281 -225 0
-274 -323 -281 -267 0
-274 -323 -225 -267 0
-274 -281 -225 -267 0
-275 -324 -282 -226 0
-275 -324 -282 -268 0
-275 -324 -226 -268 0
-275 -282 -226 -268 0
-276 -325 -283 -227 0
-276 -325 -283 -269 0
-276 -325 -227 -269 0
-276 -283 -227 -269 0
-277 -326 -284 -228 0
-277 -326 -284 -270 0
-277 -326 -228 -270 0
-277 -284 -228 -270 0
-278 -327 -285 -229 0
-278 -327 -285 -271 0
-278 -327 -229 -271 0
-278 -285 -229 -271 0
-279 -328 -286 -230 0
-279 -328 -286 -272 0
-279 -328 -230 -272 0
-279 -286 -230 -272 0
-280 -329 -287 -231 0
-280 -329 -287 -273 0
-280 -329 -231 -273 0
-280 -287 -231 -273 0
-281 0
-282 0
-283 0
-284 0
-285 0
-287 0
286 0
335 293 237 279 0
-335 -293 0
-335 -237 0
-335 -279 0
-293 -237 0
-293 -279 0
-237 -279 0
402 403 0
-402 -403 0
-288 -289 0
-288 -290 0
-289 -290 0
-291 -292 0
-291 -293 0
-291 -294 0
-292 -293 0
-292 -294 0
-293 -294 0
-402 288 289 290 0
-403 290 291 292 293 294 0
402 -288 0
402 -289 0
402 -290 0
403 -291 0
403 -292 0
403 -293 0
403 -294 0
-288 337 281 0
-288 337 239 0
-288 281 239 0
-289 338 282 0
-289 338 240 0
-289 282 240 0
-290 339 283 0
-290 339 241 0
-290 283 241 0
-291 340 284 0
-291 340 242 0
-291 284 242 0
-292 341 285 0
-292 341 243 0
-292 285 243 0
-293 342 286 0
-293 342 244 0
-293 286 244 0
-294 343 287 0
-294 343 245 0
-294 287 245 0
-288 -337 -281 -239 0
-289 -338 -282 -240 0
-290 -339 -283 -241 0
-291 -340 -284 -242 0
-292 -341 -285 -243 0
-293 -342 -286 -244 0
-294 -343 -287 -245 0
-295 0
-296 0
-297 0
-298 0
-299 0
-300 0
301 0
252 308 0
-252 -308 0
404 405 0
-404 -405 0
-302 -303 0
-302 -304 0
-303 -304 0
-305 -306 0
-305 -307 0
-305 -308 0
-306 -307 0
-306 -308 0
-307 -308 0
-404 302 303 304 0
-405 304 305 306 307 308 0
404 -302 0
404 -303 0
404 -304 0
405 -305 0
405 -306 0
405 -307 0
405 -308 0
-302 253 309 0
-302 253 295 0
-302 309 295 0
-303 254 310 0
-303 254 296 0
-303 310 296 0
-304 255 311 0
-304 255 297 0
-304 311 297 0
-305 256 312 0
-305 256 298 0
-305 312 298 0
-306 257 313 0
-306 257 299 0
-306 313 299 0
-307 258 314 0
-307 258 300 0
-307 314 300 0
-308 259 315 0
-308 259 301 0
-308 315 301 0
-302 -253 -309 -295 0
-303 -254 -310 -296 0
-304 -255 -311 -297 0
-305 -256 -312 -298 0
-306 -257 -313 -299 0
-307 -258 -314 -300 0
-308 -259 -315 -301 0
406 407 0
-406 -407 0
-309 -310 0
-309 -311 0
-310 -311 0
-312 -313 0
-312 -314 0
-312 -315 0
-313 -314 0
-313 -315 0
-314 -315 0
-406 309 310 311 0
-407 311 312 313 314 315 0
406 -309 0
406 -310 0
406 -311 0
407 -312 0
407 -313 0
407 -314 0
407 -315 0
-309 260 316 0
-309 260 302 0
-309 316 302 0
-310 261 317 0
-310 261 303 0
-310 317 303 0
-311 262 318 0
-311 262 304 0
-311 318 304 0
-312 263 319 0
-312 263 305 0
-312 319 305 0
-313 264 320 0
-313 264 306 0
-313 320 306 0
-314 265 321 0
-314 265 307 0
-314 321 307 0
-315 266 322 0
-315 266 308 0
-315 322 308 0
-309 -260 -316 -302 0
-310 -261 -317 -303 0
-311 -262 -318 -304 0
-312 -263 -319 -305 0
-313 -264 -320 -306 0
-314 -265 -321 -307 0
-315 -266 -322 -308 0
408 409 0
-408 -409 0
-316 -317 0
-316 -318 0
-317 -318 0
-319 -320 0
-319 -321 0
-319 -322 0
-320 -321 0
-320 -322 0
-321 -322 0
-408 316 317 318 0
-409 318 319 320 321 322 0
408 -316 0
408 -317 0
408 -318 0
409 -319 0
409 -320 0
409 -321 0
409 -322 0
-316 267 323 0
-316 267 309 0
-316 323 309 0
-317 268 324 0
-317 268 310 0
-317 324 310 0
-318 269 325 0
-318 269 311 0
-318 325 311 0
-319 270 326 0
-319 270 312 0
-319 326 312 0
-320 271 327 0
-320 271 313 0
-320 327 313 0
-321 272 328 0
-321 272 314 0
-321 328 314 0
-322 273 329 0
-322 273 315 0
-322 329 315 0
-316 -267 -323 -309 0
-317 -268 -324 -310 0
-318 -269 -325 -311 0
-319 -270 -326 -312 0
-320 -271 -327 -313 0
-321 -272 -328 -314 0
-322 -273 -329 -315 0
410 411 0
-410 -411 0
-323 -324 0
-323 -325 0
-324 -325 0
-326 -327 0
-326 -328 0
-326 -329 0
-327 -328 0
-327 -329 0
-328 -329 0
-410 323 324 325 0
-411 325 326 327 328 329 0
410 -323 0
410 -324 0
410 -325 0
411 -326 0
411 -327 0
411 -328 0
411 -329 0
-323 274 330 0
-323 274 316 0
-323 330 316 0
-324 275 331 0
-324 275 317 0
-324 331 317 0
-325 276 332 0
-325 276 318 0
-325 332 318 0
-326 277 333 0
-326 277 319 0
-326 333 319 0
-327 278 334 0
-327 278 320 0
-327 334 320 0
-328 279 335 0
-328 279 321 0
-328 335 321 0
-329 280 336 0
-329 280 322 0
-329 336 322 0
-323 -274 -330 -316 0
-324 -275 -331 -317 0
-325 -276 -332 -318 0
-326 -277 -333 -319 0
-327 -278 -334 -320 0
-328 -279 -335 -321 0
-329 -280 -336 -322 0
412 413 0
-412 -413 0
-330 -331 0
-330 -332 0
-331 -332 0
-333 -334 0
-333 -335 0
-333 -336 0
-334 -335 0
-334 -336 0
-335 -336 0
-412 330 331 332 0
-413 332 333 334 335 336 0
412 -330 0
412 -331 0
412 -332 0
413 -333 0
413 -334 0
413 -335 0
413 -336 0
-330 281 337 0
-330 281 323 0
-330 337 323 0
-331 282 338 0
-331 282 324 0
-331 338 324 0
-332 283 339 0
-332 283 325 0
-332 339 325 0
-333 284 340 0
-333 284 326 0
-333 340 326 0
-334 285 341 0
-334 285 327 0
-334 341 327 0
-335 286 342 0
-335 286 328 0
-335 342 328 0
-336 287 343 0
-336 287 329 0
-336 343 329 0
-330 -281 -337 -323 0
-331 -282 -338 -324 0
-332 -283 -339 -325 0
-333 -284 -340 -326 0
-334 -285 -341 -327 0
-335 -286 -342 -328 0
-336 -287 -343 -329 0
-337 0
-338 0
-339 0
-340 0
-342 0
-343 0
341 0
292 334 0
-292 -334 0